minizinc/sudoku_problems2/sudoku_p67.dzn
%
% sudoku_p67.dzn
% See http://www.hakank.org/minizinc/sudoku_gcc.mzn
% 
% This problem is problem 67 from
% Gecode's sudoku.cpp
% http://www.gecode.org/gecode-doc-latest/sudoku_8cpp-source.html
% 
x = array2d(1..n, 1..n, [   
% http://janko.at/Raetsel/Sudoku/514.a.htm
% 67
  _,  _,  _, 11,  5,  6,  2, 14,  _,  1, 16,  _,  _,  _,  _,  _,
  _, 13,  2,  7, 10,  _,  _,  _,  4,  _,  _,  _,  5,  6, 11,  _,
  _, 16,  6,  _,  _, 11,  _, 12,  _,  _,  2,  _,  _, 14,  7,  _,
  _,  1,  _, 12,  _,  _,  7,  _, 13, 11,  _,  _,  3,  _,  4,  2,
  _,  _,  _,  _,  3,  7,  _,  2, 14,  _,  _, 16,  _,  _,  6,  4,
 13,  _,  3,  _,  _,  5,  _,  _, 12,  _, 10,  8,  _, 16,  _,  1,
 12,  _,  _, 10,  _,  _,  _, 15,  9,  _,  _,  _, 13,  _,  _,  3,
  _,  2,  _, 15, 13, 16,  8,  _,  _,  3,  _,  4,  _,  5,  _, 14,
  2,  _,  8,  _, 15,  _,  4,  _,  _, 12, 14, 11, 16,  _,  5,  _,
 14,  _,  _, 13,  _,  _,  _, 16,  5,  _,  _,  _, 12,  _,  _, 11,
  1,  _,  5,  _,  2, 12,  _, 13,  _,  _,  9,  _,  _, 15,  _,  8,
 15, 12,  _,  _, 14,  _,  _,  5, 16,  _,  8,  1,  _,  _,  _,  _,
 10,  3,  _,  5,  _,  _, 16,  8,  _,  9,  _,  _,  6,  _, 14,  _,
  _, 15,  4,  _,  _, 10,  _,  _,  2,  _,  1,  _,  _,  3,  9,  _,
  _, 14,  1,  6,  _,  _,  _,  3,  _,  _,  _, 12,  4,  2, 16,  _,
  _,  _,  _,  _,  _, 14,  1,  _,  7,  6,  3, 10, 15,  _,  _,  _
]);

n = 16;


